Welcome to the CBC MILP Solver 
Version: Trunk
Build Date: Apr 16 2020 

Starting solution of the Linear programming relaxation problem using Primal Simplex

Using Python-MIP package version 1.8.1
Machines:  3 Jobs:  3
Order: 
Job  0 : machine 1 ( 7 ) machine 2 ( 7 ) machine 0 ( 1 ) 
Job  1 : machine 1 ( 4 ) machine 0 ( 3 ) machine 2 ( 7 ) 
Job  2 : machine 1 ( 7 ) machine 2 ( 6 ) machine 0 ( 2 ) 
K:  33
Job  0 , e: machine  0 ( 14 ) machine  1 ( 0 ) machine  2 ( 7 ) 
Job  1 , e: machine  0 ( 4 ) machine  1 ( 0 ) machine  2 ( 7 ) 
Job  2 , e: machine  0 ( 13 ) machine  1 ( 0 ) machine  2 ( 7 ) 
Job  0 , f: machine  0 ( 0 ) machine  1 ( 8 ) machine  2 ( 1 ) 
Job  1 , f: machine  0 ( 7 ) machine  1 ( 10 ) machine  2 ( 0 ) 
Job  2 , f: machine  0 ( 0 ) machine  1 ( 8 ) machine  2 ( 2 ) 
EST and LST:
Job: 0 Machine: 0 EST: 14 LST: 32
Job: 0 Machine: 1 EST: 0 LST: 18
Job: 0 Machine: 2 EST: 7 LST: 25
Job: 1 Machine: 0 EST: 4 LST: 23
Job: 1 Machine: 1 EST: 0 LST: 19
Job: 1 Machine: 2 EST: 7 LST: 26
Job: 2 Machine: 0 EST: 13 LST: 31
Job: 2 Machine: 1 EST: 0 LST: 18
Job: 2 Machine: 2 EST: 7 LST: 25
Order:
Job: 0 Machine: 0 = 2 
Job: 0 Machine: 1 = 0 
Job: 0 Machine: 2 = 1 
Job: 1 Machine: 0 = 1 
Job: 1 Machine: 1 = 0 
Job: 1 Machine: 2 = 2 
Job: 2 Machine: 0 = 2 
Job: 2 Machine: 1 = 0 
Job: 2 Machine: 2 = 1 
Distances:
Job 0, Machine 1 -> Machine 2: distance 7
Job 0, Machine 1 -> Machine 0: distance 14
Job 0, Machine 2 -> Machine 0: distance 7
Job 1, Machine 1 -> Machine 0: distance 4
Job 1, Machine 1 -> Machine 2: distance 7
Job 1, Machine 0 -> Machine 2: distance 3
Job 2, Machine 1 -> Machine 2: distance 7
Job 2, Machine 1 -> Machine 0: distance 13
Job 2, Machine 2 -> Machine 0: distance 6
McCormic linearization
14.0 13.0 2
0.0 0.0 4
0.0 0.0 7
0.0 0.0 7
7.0 7.0 7
7.0 7.0 6
7.0 7.0 6
[(0, 1), (1, 2), (0, 0), (0, 2), (2, 1), (2, 0), (1, 1)]
obj:  0.0
solutions:  1
+ 0.14285714285714285x(0,1) + 0.14285714285714285x(2,1) 
C:  18.5
x(0,0) = 17.50	 x(0,1) = 3.50	 x(0,2) = 10.50	 
x(1,0) = 8.50	 x(1,1) = 4.50	 x(1,2) = 11.50	 
x(2,0) = 16.50	 x(2,1) = 3.50	 x(2,2) = 10.50	 
y(0,1,0) = 0.00	 y(1,0,0) = 1.00	 
y(0,2,0) = 0.90	 y(2,0,0) = 0.10	 
y(1,2,0) = 0.59	 y(2,1,0) = 0.41	 
y(0,1,1) = 0.22	 y(1,0,1) = 0.78	 
y(0,2,1) = 0.50	 y(2,0,1) = 0.50	 
y(1,2,1) = 0.36	 y(2,1,1) = 0.64	 
y(0,1,2) = 0.50	 y(1,0,2) = 0.50	 
y(0,2,2) = 0.42	 y(2,0,2) = 0.58	 
y(1,2,2) = 0.50	 y(2,1,2) = 0.50	 
17.500000000000004 16.5 2
3.500000000000003 3.4999999999999973 7
4.499999999999999 3.4999999999999973 7
10.500000000000004 10.499999999999998 6
11.5 10.499999999999998 6
obj:  0.638095238095238
solutions:  1
+ 0.06666666666666667x(0,1) + 0.06666666666666667x(2,1) + 0.03809523809523809x(1,1) 
[(0, 1), (1, 2), (0, 0), (0, 2), (2, 1), (2, 0), (1, 1)]
cliques:  1 mip: 20
C:  20.983660130718953
x(0,0) = 19.87	 x(0,1) = 5.87	 x(0,2) = 12.87	 
x(1,0) = 9.51	 x(1,1) = 5.51	 x(1,2) = 12.51	 
x(2,0) = 18.98	 x(2,1) = 5.98	 x(2,2) = 12.98	 
y(0,1,0) = 0.00	 y(1,0,0) = 1.00	 
y(0,2,0) = 0.06	 y(2,0,0) = 0.94	 
y(1,2,0) = 0.62	 y(2,1,0) = 0.38	 
y(0,1,1) = 0.71	 y(1,0,1) = 0.29	 
y(0,2,1) = 0.31	 y(2,0,1) = 0.69	 
y(1,2,1) = 0.30	 y(2,1,1) = 0.70	 
y(0,1,2) = 0.31	 y(1,0,2) = 0.69	 
y(0,2,2) = 0.25	 y(2,0,2) = 0.75	 
y(1,2,2) = 0.71	 y(2,1,2) = 0.29	 
19.86601307189542 18.983660130718963 2
5.866013071895418 5.513071895424833 4
12.86601307189542 12.513071895424831 7
obj:  1.0
erro
[(0, 1), (1, 2), (0, 0), (0, 2), (2, 1), (2, 0), (1, 1)]
cliques:  0 mip: 51
C:  22.463941299790363
x(0,0) = 21.46	 x(0,1) = 7.46	 x(0,2) = 14.46	 
x(1,0) = 7.61	 x(1,1) = 3.56	 x(1,2) = 10.61	 
x(2,0) = 18.50	 x(2,1) = 5.50	 x(2,2) = 12.50	 
y(0,1,0) = 0.00	 y(1,0,0) = 1.00	 
y(0,2,0) = 0.00	 y(2,0,0) = 1.00	 
y(1,2,0) = 0.67	 y(2,1,0) = 0.33	 
y(0,1,1) = 0.02	 y(1,0,1) = 0.98	 
y(0,2,1) = 0.20	 y(2,0,1) = 0.80	 
y(1,2,1) = 0.74	 y(2,1,1) = 0.26	 
y(0,1,2) = 0.12	 y(1,0,2) = 0.88	 
y(0,2,2) = 0.64	 y(2,0,2) = 0.36	 
y(1,2,2) = 0.78	 y(2,1,2) = 0.22	 
7.4639412997903625 3.5601677148847024 4
7.4639412997903625 5.5016771488469525 7
14.463941299790362 10.61481281820904 7
14.463941299790362 12.50167714884695 6
obj:  0.9178071125240936
solutions:  1
+ 0.025641025641025657x(1,2) + 0.021978021978021987x(2,2) + 0.025641025641025637x(0,2) 
[(0, 1), (1, 2), (2, 1), (1, 1), (2, 2), (0, 2)]
cliques:  1 mip: 47
C:  23.40781753151717
x(0,0) = 22.41	 x(0,1) = 4.37	 x(0,2) = 11.37	 
x(1,0) = 13.41	 x(1,1) = 7.94	 x(1,2) = 16.41	 
x(2,0) = 19.09	 x(2,1) = 6.09	 x(2,2) = 13.09	 
y(0,1,0) = 0.00	 y(1,0,0) = 1.00	 
y(0,2,0) = 0.00	 y(2,0,0) = 1.00	 
y(1,2,0) = 0.93	 y(2,1,0) = 0.07	 
y(0,1,1) = 0.71	 y(1,0,1) = 0.29	 
y(0,2,1) = 0.70	 y(2,0,1) = 0.30	 
y(1,2,1) = 0.73	 y(2,1,1) = 0.27	 
y(0,1,2) = 0.62	 y(1,0,2) = 0.38	 
y(0,2,2) = 0.58	 y(2,0,2) = 0.42	 
y(1,2,2) = 0.42	 y(2,1,2) = 0.58	 
7.941318752034955 6.08944771248042 7
16.407817531517175 13.08944771248042 6
obj:  1.0000000000000002
erro
[(0, 1), (1, 2), (2, 1), (1, 1), (2, 2), (0, 2)]
cliques:  0 mip: 48
C:  24.000000000000004
x(0,0) = 23.00	 x(0,1) = 8.25	 x(0,2) = 15.25	 
x(1,0) = 12.28	 x(1,1) = 5.96	 x(1,2) = 17.00	 
x(2,0) = 16.99	 x(2,1) = 3.99	 x(2,2) = 10.99	 
y(0,1,0) = 0.00	 y(1,0,0) = 1.00	 
y(0,2,0) = 0.00	 y(2,0,0) = 1.00	 
y(1,2,0) = 0.98	 y(2,1,0) = 0.02	 
y(0,1,1) = 0.19	 y(1,0,1) = 0.81	 
y(0,2,1) = 0.35	 y(2,0,1) = 0.65	 
y(1,2,1) = 0.41	 y(2,1,1) = 0.59	 
y(0,1,2) = 0.34	 y(1,0,2) = 0.66	 
y(0,2,2) = 0.11	 y(2,0,2) = 0.89	 
y(1,2,2) = 0.04	 y(2,1,2) = 0.96	 
8.24599931984166 5.964151403773356 4
8.24599931984166 3.9907812590553853 7
5.964151403773356 3.9907812590553853 7
15.245999319841658 10.990781259055385 6
obj:  1.0429911396892642
erro
[(0, 1), (1, 2), (2, 1), (1, 1), (2, 2), (0, 2)]
cliques:  0 mip: 41
C:  24.0
x(0,0) = 23.00	 x(0,1) = 7.11	 x(0,2) = 14.11	 
x(1,0) = 12.22	 x(1,1) = 6.86	 x(1,2) = 17.00	 
x(2,0) = 17.88	 x(2,1) = 4.05	 x(2,2) = 11.88	 
y(0,1,0) = 0.00	 y(1,0,0) = 1.00	 
y(0,2,0) = 0.00	 y(2,0,0) = 1.00	 
y(1,2,0) = 0.95	 y(2,1,0) = 0.05	 
y(0,1,1) = 0.37	 y(1,0,1) = 0.63	 
y(0,2,1) = 0.41	 y(2,0,1) = 0.59	 
y(1,2,1) = 0.48	 y(2,1,1) = 0.52	 
y(0,1,2) = 0.38	 y(1,0,2) = 0.62	 
y(0,2,2) = 0.27	 y(2,0,2) = 0.73	 
y(1,2,2) = 0.06	 y(2,1,2) = 0.94	 
7.110342523458873 6.858104137887778 4
7.110342523458873 4.050068897372444 7
6.858104137887778 4.050068897372444 7
14.11034252345887 11.876380420900057 6
17.000000000000004 11.876380420900057 6
obj:  1.0052885380701937
erro
[(0, 1), (1, 2), (2, 1), (1, 1), (2, 2), (0, 2)]
cliques:  0 mip: 41
C:  24.0
x(0,0) = 23.00	 x(0,1) = 4.10	 x(0,2) = 11.10	 
x(1,0) = 14.00	 x(1,1) = 9.00	 x(1,2) = 17.00	 
x(2,0) = 21.00	 x(2,1) = 6.59	 x(2,2) = 14.26	 
y(0,1,0) = 0.00	 y(1,0,0) = 1.00	 
y(0,2,0) = 0.00	 y(2,0,0) = 1.00	 
y(1,2,0) = 0.90	 y(2,1,0) = 0.10	 
y(0,1,1) = 0.80	 y(1,0,1) = 0.20	 
y(0,2,1) = 0.65	 y(2,0,1) = 0.35	 
y(1,2,1) = 0.71	 y(2,1,1) = 0.29	 
y(0,1,2) = 0.79	 y(1,0,2) = 0.21	 
y(0,2,2) = 0.70	 y(2,0,2) = 0.30	 
y(1,2,2) = 0.36	 y(2,1,2) = 0.64	 
22.999999999999993 21.0 2
8.999999999999803 6.591833336531804 7
17.0 14.261596651415477 6
obj:  1.055725805723636
erro
[(0, 1), (1, 2), (0, 0), (0, 2), (2, 1), (2, 0), (1, 1)]
cliques:  0 mip: 31
C:  24.000000000000004
x(0,0) = 23.00	 x(0,1) = 3.27	 x(0,2) = 10.27	 
x(1,0) = 14.00	 x(1,1) = 8.91	 x(1,2) = 17.00	 
x(2,0) = 21.00	 x(2,1) = 7.18	 x(2,2) = 14.54	 
y(0,1,0) = 0.00	 y(1,0,0) = 1.00	 
y(0,2,0) = 0.00	 y(2,0,0) = 1.00	 
y(1,2,0) = 0.90	 y(2,1,0) = 0.10	 
y(0,1,1) = 0.78	 y(1,0,1) = 0.22	 
y(0,2,1) = 0.71	 y(2,0,1) = 0.29	 
y(1,2,1) = 0.75	 y(2,1,1) = 0.25	 
y(0,1,2) = 0.85	 y(1,0,2) = 0.15	 
y(0,2,2) = 0.82	 y(2,0,2) = 0.18	 
y(1,2,2) = 0.55	 y(2,1,2) = 0.45	 
23.0 21.000000000000004 2
8.912087231455594 7.181016316515812 7
17.0 14.542779284076898 6
obj:  1.0360522192783521
erro
[(0, 1), (1, 2), (0, 0), (0, 2), (2, 1), (2, 0), (1, 1)]
cliques:  0 mip: 32
C:  23.999999999999996
x(0,0) = 22.41	 x(0,1) = 3.40	 x(0,2) = 10.40	 
x(1,0) = 14.00	 x(1,1) = 8.01	 x(1,2) = 17.00	 
x(2,0) = 20.53	 x(2,1) = 7.53	 x(2,2) = 14.53	 
y(0,1,0) = 0.00	 y(1,0,0) = 1.00	 
y(0,2,0) = 0.30	 y(2,0,0) = 0.70	 
y(1,2,0) = 0.92	 y(2,1,0) = 0.08	 
y(0,1,1) = 0.60	 y(1,0,1) = 0.40	 
y(0,2,1) = 0.83	 y(2,0,1) = 0.17	 
y(1,2,1) = 0.81	 y(2,1,1) = 0.19	 
y(0,1,2) = 0.81	 y(1,0,2) = 0.19	 
y(0,2,2) = 0.80	 y(2,0,2) = 0.20	 
y(1,2,2) = 0.53	 y(2,1,2) = 0.47	 
22.405696316821356 20.531245921386013 2
8.006714714819417 7.531245921386013 7
17.0 14.531245921386013 6
obj:  1.0334672062271417
erro
[(0, 1), (1, 2), (0, 0), (0, 2), (2, 1), (2, 0), (1, 1)]
cliques:  0 mip: 41
C:  24.0
x(0,0) = 22.02	 x(0,1) = 3.69	 x(0,2) = 10.69	 
x(1,0) = 14.00	 x(1,1) = 7.13	 x(1,2) = 17.00	 
x(2,0) = 20.68	 x(2,1) = 7.54	 x(2,2) = 14.68	 
y(0,1,0) = 0.00	 y(1,0,0) = 1.00	 
y(0,2,0) = 0.49	 y(2,0,0) = 0.51	 
y(1,2,0) = 0.53	 y(2,1,0) = 0.47	 
y(0,1,1) = 0.86	 y(1,0,1) = 0.14	 
y(0,2,1) = 0.87	 y(2,0,1) = 0.13	 
y(1,2,1) = 0.84	 y(2,1,1) = 0.16	 
y(0,1,2) = 0.95	 y(1,0,2) = 0.05	 
y(0,2,2) = 0.76	 y(2,0,2) = 0.24	 
y(1,2,2) = 0.64	 y(2,1,2) = 0.36	 
22.018851058632414 20.6795320032489 2
17.0 14.6795320032489 6
obj:  1.0206179285910213
erro
[(0, 1), (1, 2), (0, 0), (0, 2), (2, 1), (2, 0), (1, 1)]
cliques:  0 mip: 43
C:  23.999999999999996
x(0,0) = 21.30	 x(0,1) = 5.16	 x(0,2) = 12.16	 
x(1,0) = 14.00	 x(1,1) = 6.54	 x(1,2) = 17.00	 
x(2,0) = 19.30	 x(2,1) = 6.19	 x(2,2) = 13.30	 
y(0,1,0) = 0.00	 y(1,0,0) = 1.00	 
y(0,2,0) = 0.85	 y(2,0,0) = 0.15	 
y(1,2,0) = 0.65	 y(2,1,0) = 0.35	 
y(0,1,1) = 0.55	 y(1,0,1) = 0.45	 
y(0,2,1) = 0.68	 y(2,0,1) = 0.32	 
y(1,2,1) = 0.81	 y(2,1,1) = 0.19	 
y(0,1,2) = 0.91	 y(1,0,2) = 0.09	 
y(0,2,2) = 0.55	 y(2,0,2) = 0.45	 
y(1,2,2) = 0.16	 y(2,1,2) = 0.84	 
21.299477134151207 19.304705792639083 2
6.544402904516653 6.191643582551596 7
17.0 13.304705792639085 6
obj:  1.006214340794384
erro
[(0, 1), (1, 2), (0, 0), (0, 2), (2, 1), (2, 0), (1, 1)]
cliques:  0 mip: 41
C:  24.0
x(0,0) = 20.84	 x(0,1) = 5.26	 x(0,2) = 12.26	 
x(1,0) = 13.84	 x(1,1) = 6.83	 x(1,2) = 16.89	 
x(2,0) = 18.84	 x(2,1) = 5.84	 x(2,2) = 12.84	 
y(0,1,0) = 0.00	 y(1,0,0) = 1.00	 
y(0,2,0) = 0.00	 y(2,0,0) = 1.00	 
y(1,2,0) = 0.53	 y(2,1,0) = 0.47	 
y(0,1,1) = 0.67	 y(1,0,1) = 0.33	 
y(0,2,1) = 0.74	 y(2,0,1) = 0.26	 
y(1,2,1) = 0.62	 y(2,1,1) = 0.38	 
y(0,1,2) = 0.86	 y(1,0,2) = 0.14	 
y(0,2,2) = 0.53	 y(2,0,2) = 0.47	 
y(1,2,2) = 0.24	 y(2,1,2) = 0.76	 
6.828314874429122 5.8371107642025 7
16.893146231242657 12.837110764202501 6
obj:  1.0000000000000002
erro
[(0, 1), (1, 2), (2, 1), (1, 1), (2, 2), (0, 2)]
cliques:  0 mip: 38
C:  24.0
x(0,0) = 19.64	 x(0,1) = 5.63	 x(0,2) = 12.64	 
x(1,0) = 10.65	 x(1,1) = 6.65	 x(1,2) = 16.48	 
x(2,0) = 18.57	 x(2,1) = 5.57	 x(2,2) = 12.57	 
y(0,1,0) = 0.00	 y(1,0,0) = 1.00	 
y(0,2,0) = 0.90	 y(2,0,0) = 0.10	 
y(1,2,0) = 0.88	 y(2,1,0) = 0.12	 
y(0,1,1) = 0.61	 y(1,0,1) = 0.39	 
y(0,2,1) = 0.52	 y(2,0,1) = 0.48	 
y(1,2,1) = 0.64	 y(2,1,1) = 0.36	 
y(0,1,2) = 0.87	 y(1,0,2) = 0.13	 
y(0,2,2) = 0.46	 y(2,0,2) = 0.54	 
y(1,2,2) = 0.33	 y(2,1,2) = 0.67	 
19.64139953630486 18.570067594768194 2
5.628403267759236 5.570067594768192 7
6.6526759905770065 5.570067594768192 7
12.64139953630486 12.570067594768194 6
16.48399643453967 12.570067594768194 6
obj:  1.0
erro
[(0, 1), (1, 2), (0, 0), (0, 2), (2, 1), (2, 0), (1, 1)]
cliques:  0 mip: 42
C:  24.0
x(0,0) = 21.21	 x(0,1) = 6.68	 x(0,2) = 14.21	 
x(1,0) = 11.31	 x(1,1) = 7.31	 x(1,2) = 17.00	 
x(2,0) = 17.15	 x(2,1) = 4.15	 x(2,2) = 11.15	 
y(0,1,0) = 0.00	 y(1,0,0) = 1.00	 
y(0,2,0) = 0.12	 y(2,0,0) = 0.88	 
y(1,2,0) = 0.56	 y(2,1,0) = 0.44	 
y(0,1,1) = 0.46	 y(1,0,1) = 0.54	 
y(0,2,1) = 0.46	 y(2,0,1) = 0.54	 
y(1,2,1) = 0.49	 y(2,1,1) = 0.51	 
y(0,1,2) = 0.69	 y(1,0,2) = 0.31	 
y(0,2,2) = 0.26	 y(2,0,2) = 0.74	 
y(1,2,2) = 0.44	 y(2,1,2) = 0.56	 
6.677211557660417 4.146860810482957 7
7.307873355749096 4.146860810482957 7
14.208316900485208 11.14686081048296 6
17.0 11.14686081048296 6
obj:  1.0
erro
[(0, 1), (1, 2), (2, 1), (1, 1), (2, 2), (0, 2)]
cliques:  0 mip: 43
C:  24.0
x(0,0) = 22.41	 x(0,1) = 8.41	 x(0,2) = 15.41	 
x(1,0) = 9.90	 x(1,1) = 5.90	 x(1,2) = 14.94	 
x(2,0) = 16.35	 x(2,1) = 3.22	 x(2,2) = 10.22	 
y(0,1,0) = 0.00	 y(1,0,0) = 1.00	 
y(0,2,0) = 0.23	 y(2,0,0) = 0.77	 
y(1,2,0) = 0.74	 y(2,1,0) = 0.26	 
y(0,1,1) = 0.18	 y(1,0,1) = 0.82	 
y(0,2,1) = 0.34	 y(2,0,1) = 0.66	 
y(1,2,1) = 0.51	 y(2,1,1) = 0.49	 
y(0,1,2) = 0.59	 y(1,0,2) = 0.41	 
y(0,2,2) = 0.08	 y(2,0,2) = 0.92	 
y(1,2,2) = 0.48	 y(2,1,2) = 0.52	 
8.410841045316158 5.898221846339844 4
8.410841045316158 3.2187464710610767 7
5.898221846339844 3.2187464710610767 7
15.410841045316156 14.935968475248275 7
15.410841045316156 10.218746471061078 6
14.935968475248275 10.218746471061078 6
obj:  1.0000000000000002
erro
[(0, 1), (1, 2), (2, 1), (1, 1), (2, 2), (0, 2)]
cliques:  0 mip: 44
C:  24.000000000000004
x(0,0) = 21.46	 x(0,1) = 6.65	 x(0,2) = 14.46	 
x(1,0) = 11.30	 x(1,1) = 7.30	 x(1,2) = 14.91	 
x(2,0) = 17.48	 x(2,1) = 4.30	 x(2,2) = 11.48	 
y(0,1,0) = 0.00	 y(1,0,0) = 1.00	 
y(0,2,0) = 0.25	 y(2,0,0) = 0.75	 
y(1,2,0) = 0.68	 y(2,1,0) = 0.32	 
y(0,1,1) = 0.46	 y(1,0,1) = 0.54	 
y(0,2,1) = 0.62	 y(2,0,1) = 0.38	 
y(1,2,1) = 0.58	 y(2,1,1) = 0.42	 
y(0,1,2) = 0.66	 y(1,0,2) = 0.34	 
y(0,2,2) = 0.22	 y(2,0,2) = 0.78	 
y(1,2,2) = 0.57	 y(2,1,2) = 0.43	 
6.652740388230461 4.302116009185029 7
7.295336241988018 4.302116009185029 7
14.460820987269786 11.477824085222853 6
14.907467763629915 11.477824085222853 6
obj:  1.005292914899762
erro
[(0, 1), (1, 2), (2, 1), (1, 1), (2, 2), (0, 2)]
cliques:  0 mip: 44
C:  24.000000000000004
x(0,0) = 22.21	 x(0,1) = 8.21	 x(0,2) = 15.21	 
x(1,0) = 10.01	 x(1,1) = 6.01	 x(1,2) = 15.45	 
x(2,0) = 16.86	 x(2,1) = 3.36	 x(2,2) = 10.86	 
y(0,1,0) = 0.00	 y(1,0,0) = 1.00	 
y(0,2,0) = 0.23	 y(2,0,0) = 0.77	 
y(1,2,0) = 0.78	 y(2,1,0) = 0.22	 
y(0,1,1) = 0.20	 y(1,0,1) = 0.80	 
y(0,2,1) = 0.53	 y(2,0,1) = 0.47	 
y(1,2,1) = 0.58	 y(2,1,1) = 0.42	 
y(0,1,2) = 0.73	 y(1,0,2) = 0.27	 
y(0,2,2) = 0.11	 y(2,0,2) = 0.89	 
y(1,2,2) = 0.25	 y(2,1,2) = 0.75	 
8.209388170658187 6.008933525845298 4
8.209388170658187 3.3569355288587848 7
6.008933525845298 3.3569355288587848 7
15.209388170658189 10.862773252530305 6
15.449810068101216 10.862773252530305 6
obj:  1.0
erro
[(0, 1), (1, 2), (2, 1), (1, 1), (2, 2), (0, 2)]
cliques:  0 mip: 45
C:  24.000000000000004
x(0,0) = 22.20	 x(0,1) = 8.20	 x(0,2) = 15.20	 
x(1,0) = 9.72	 x(1,1) = 5.72	 x(1,2) = 14.64	 
x(2,0) = 16.86	 x(2,1) = 3.53	 x(2,2) = 10.85	 
y(0,1,0) = 0.00	 y(1,0,0) = 1.00	 
y(0,2,0) = 0.19	 y(2,0,0) = 0.81	 
y(1,2,0) = 1.00	 y(2,1,0) = 0.00	 
y(0,1,1) = 0.20	 y(1,0,1) = 0.80	 
y(0,2,1) = 0.37	 y(2,0,1) = 0.63	 
y(1,2,1) = 0.55	 y(2,1,1) = 0.45	 
y(0,1,2) = 0.53	 y(1,0,2) = 0.47	 
y(0,2,2) = 0.11	 y(2,0,2) = 0.89	 
y(1,2,2) = 0.55	 y(2,1,2) = 0.45	 
8.204035892463232 5.723715474289727 4
8.204035892463232 3.525269550799781 7
5.723715474289727 3.525269550799781 7
15.20403589246323 14.643218712440698 7
15.20403589246323 10.854497129527 6
14.643218712440698 10.854497129527 6
obj:  1.0
erro
[(0, 1), (1, 2), (2, 1), (1, 1), (2, 2), (0, 2)]
cliques:  0 mip: 43
C:  24.000000000000004
x(0,0) = 22.70	 x(0,1) = 8.70	 x(0,2) = 15.70	 
x(1,0) = 9.62	 x(1,1) = 5.62	 x(1,2) = 16.25	 
x(2,0) = 17.23	 x(2,1) = 3.09	 x(2,2) = 10.36	 
y(0,1,0) = 0.00	 y(1,0,0) = 1.00	 
y(0,2,0) = 0.15	 y(2,0,0) = 0.85	 
y(1,2,0) = 0.97	 y(2,1,0) = 0.03	 
y(0,1,1) = 0.12	 y(1,0,1) = 0.88	 
y(0,2,1) = 0.28	 y(2,0,1) = 0.72	 
y(1,2,1) = 0.44	 y(2,1,1) = 0.56	 
y(0,1,2) = 0.74	 y(1,0,2) = 0.26	 
y(0,2,2) = 0.04	 y(2,0,2) = 0.96	 
y(1,2,2) = 0.36	 y(2,1,2) = 0.64	 
8.701160630220272 5.622155530172443 4
8.701160630220272 3.0861790668240476 7
5.622155530172443 3.0861790668240476 7
15.701160630220272 10.35804958441149 6
16.24943048959389 10.35804958441149 6
obj:  1.0000000000000002
erro
[(0, 1), (1, 2), (2, 1), (1, 1), (2, 2), (0, 2)]
cliques:  0 mip: 44
C:  23.999999999999996
x(0,0) = 18.26	 x(0,1) = 2.85	 x(0,2) = 11.26	 
x(1,0) = 14.00	 x(1,1) = 10.00	 x(1,2) = 17.00	 
x(2,0) = 19.43	 x(2,1) = 6.43	 x(2,2) = 13.43	 
y(0,1,0) = 0.00	 y(1,0,0) = 1.00	 
y(0,2,0) = 0.31	 y(2,0,0) = 0.69	 
y(1,2,0) = 0.60	 y(2,1,0) = 0.40	 
y(0,1,1) = 1.00	 y(1,0,1) = -0.00	 
y(0,2,1) = 0.86	 y(2,0,1) = 0.14	 
y(1,2,1) = 0.67	 y(2,1,1) = 0.33	 
y(0,1,2) = 0.91	 y(1,0,2) = 0.09	 
y(0,2,2) = 0.68	 y(2,0,2) = 0.32	 
y(1,2,2) = 0.39	 y(2,1,2) = 0.61	 
10.00000000000048 6.434763983902915 7
17.000000000001837 13.434763983902888 6
obj:  1.019977543008592
erro
[(0, 1), (1, 2), (2, 1), (2, 2), (0, 2)]
cliques:  0 mip: 40
C:  24.000000000000004
x(0,0) = 19.35	 x(0,1) = 5.14	 x(0,2) = 12.35	 
x(1,0) = 13.07	 x(1,1) = 6.93	 x(1,2) = 17.00	 
x(2,0) = 19.05	 x(2,1) = 5.90	 x(2,2) = 13.05	 
y(0,1,0) = 0.00	 y(1,0,0) = 1.00	 
y(0,2,0) = 0.09	 y(2,0,0) = 0.91	 
y(1,2,0) = 0.33	 y(2,1,0) = 0.67	 
y(0,1,1) = 0.39	 y(1,0,1) = 0.61	 
y(0,2,1) = 0.57	 y(2,0,1) = 0.43	 
y(1,2,1) = 0.64	 y(2,1,1) = 0.36	 
y(0,1,2) = 0.60	 y(1,0,2) = 0.40	 
y(0,2,2) = 0.52	 y(2,0,2) = 0.48	 
y(1,2,2) = 0.58	 y(2,1,2) = 0.42	 
19.34698373020289 19.050889472170983 2
6.931119583512697 5.901715499957689 7
17.000000000000007 13.050889472170981 6
obj:  1.0
erro
[(0, 1), (1, 2), (0, 0), (0, 2), (2, 1), (2, 0), (1, 1)]
cliques:  0 mip: 44
C:  24.0
x(0,0) = 20.54	 x(0,1) = 6.54	 x(0,2) = 13.54	 
x(1,0) = 9.64	 x(1,1) = 5.64	 x(1,2) = 15.70	 
x(2,0) = 18.78	 x(2,1) = 5.24	 x(2,2) = 12.24	 
y(0,1,0) = 0.00	 y(1,0,0) = 1.00	 
y(0,2,0) = 0.86	 y(2,0,0) = 0.14	 
y(1,2,0) = 0.59	 y(2,1,0) = 0.41	 
y(0,1,1) = 0.46	 y(1,0,1) = 0.54	 
y(0,2,1) = 0.67	 y(2,0,1) = 0.33	 
y(1,2,1) = 0.71	 y(2,1,1) = 0.29	 
y(0,1,2) = 0.60	 y(1,0,2) = 0.40	 
y(0,2,2) = 0.35	 y(2,0,2) = 0.65	 
y(1,2,2) = 0.42	 y(2,1,2) = 0.58	 
20.53616453026123 18.779973782640486 2
6.536164530261231 5.637892443034205 4
6.536164530261231 5.242182645147796 7
5.637892443034205 5.242182645147796 7
13.536164530261228 12.242182645147798 6
15.695037115891646 12.242182645147798 6
obj:  1.0
erro
[(0, 1), (1, 2), (0, 0), (0, 2), (2, 1), (2, 0), (1, 1)]
cliques:  0 mip: 42
C:  24.0
x(0,0) = 19.36	 x(0,1) = 5.36	 x(0,2) = 12.36	 
x(1,0) = 10.07	 x(1,1) = 6.07	 x(1,2) = 16.35	 
x(2,0) = 21.07	 x(2,1) = 6.17	 x(2,2) = 13.17	 
y(0,1,0) = 0.00	 y(1,0,0) = 1.00	 
y(0,2,0) = 0.96	 y(2,0,0) = 0.04	 
y(1,2,0) = 0.45	 y(2,1,0) = 0.55	 
y(0,1,1) = 0.51	 y(1,0,1) = 0.49	 
y(0,2,1) = 0.63	 y(2,0,1) = 0.37	 
y(1,2,1) = 0.79	 y(2,1,1) = 0.21	 
y(0,1,2) = 0.66	 y(1,0,2) = 0.34	 
y(0,2,2) = 0.52	 y(2,0,2) = 0.48	 
y(1,2,2) = 0.37	 y(2,1,2) = 0.63	 
16.352880493938045 13.17428923427793 6
obj:  1.0000000000000002
erro
[(0, 1), (1, 2), (2, 1), (1, 1), (2, 2), (0, 2)]
cliques:  0 mip: 44
C:  24.0
x(0,0) = 18.32	 x(0,1) = 4.32	 x(0,2) = 11.32	 
x(1,0) = 12.96	 x(1,1) = 6.30	 x(1,2) = 16.68	 
x(2,0) = 20.19	 x(2,1) = 7.08	 x(2,2) = 14.19	 
y(0,1,0) = 0.00	 y(1,0,0) = 1.00	 
y(0,2,0) = 0.50	 y(2,0,0) = 0.50	 
y(1,2,0) = 0.64	 y(2,1,0) = 0.36	 
y(0,1,1) = 0.68	 y(1,0,1) = 0.32	 
y(0,2,1) = 0.75	 y(2,0,1) = 0.25	 
y(1,2,1) = 0.79	 y(2,1,1) = 0.21	 
y(0,1,2) = 0.52	 y(1,0,2) = 0.48	 
y(0,2,2) = 0.67	 y(2,0,2) = 0.33	 
y(1,2,2) = 0.38	 y(2,1,2) = 0.62	 
16.684063447330903 14.187486108498216 6
obj:  1.0000000000000002
erro
[(0, 1), (1, 2), (2, 1), (1, 1), (2, 2), (0, 2)]
cliques:  0 mip: 44
C:  23.999999999999996
x(0,0) = 17.49	 x(0,1) = 3.49	 x(0,2) = 10.49	 
x(1,0) = 14.00	 x(1,1) = 6.43	 x(1,2) = 17.00	 
x(2,0) = 20.83	 x(2,1) = 7.83	 x(2,2) = 14.83	 
y(0,1,0) = 0.00	 y(1,0,0) = 1.00	 
y(0,2,0) = 0.62	 y(2,0,0) = 0.38	 
y(1,2,0) = 0.52	 y(2,1,0) = 0.48	 
y(0,1,1) = 0.74	 y(1,0,1) = 0.26	 
y(0,2,1) = 0.85	 y(2,0,1) = 0.15	 
y(1,2,1) = 0.89	 y(2,1,1) = 0.11	 
y(0,1,2) = 0.76	 y(1,0,2) = 0.24	 
y(0,2,2) = 0.79	 y(2,0,2) = 0.21	 
y(1,2,2) = 0.48	 y(2,1,2) = 0.52	 
16.999999999999996 14.833070999166933 6
obj:  0.9999999999999999
erro
[(0, 1), (1, 2), (2, 1), (1, 1), (2, 2), (0, 2)]
cliques:  0 mip: 0
iterações: 25 cortes cliques encontrados: 3 mip: 1011 objective:  23.999999999999996
Coin0506I Presolve 65 (-61) rows, 39 (-25) columns and 202 (-86) elements
Clp1000I sum of infeasibilities 3.24924e-06 - average 4.99884e-08, 0 fixed columns
Coin0506I Presolve 65 (0) rows, 39 (0) columns and 202 (0) elements
Clp0029I End of values pass after 39 iterations
Clp0000I Optimal - objective value 15
Clp0000I Optimal - objective value 15
Coin0511I After Postsolve, objective 15, infeasibilities - dual 0 (0), primal 0 (0)
Clp0000I Optimal - objective value 15
Clp0000I Optimal - objective value 15
Clp0000I Optimal - objective value 15
Coin0511I After Postsolve, objective 15, infeasibilities - dual 0 (0), primal 0 (0)
Clp0032I Optimal objective 15 - 0 iterations time 0.002, Presolve 0.00, Idiot 0.00
Coin3009W Conflict graph built in 0.000 seconds, density: 0.147%
